NAME 
ROWS
 N  OBJ
 G  R0      
 G  R1      
 G  R2      
 G  R3      
 G  R4      
 G  R5      
 G  R6      
 G  R7      
 G  R8      
 G  R9      
 G  R10     
 G  R11     
 G  R12     
 G  R13     
 G  R14     
 G  R15     
 G  R16     
 G  R17     
 G  R18     
 G  R19     
 G  R20     
 G  R21     
 G  R22     
 G  R23     
 G  R24     
 G  R25     
 G  R26     
 G  R27     
 G  R28     
 G  R29     
 G  R30     
 G  R31     
COLUMNS
    x0        OBJ       1
    x0        R0        1
    x0        R7        1
    x0        R11       1
    x0        R13       1
    x0        R14       1
    x0        R19       1
    x0        R21       1
    x0        R22       1
    x0        R25       1
    x0        R26       1
    x0        R28       1
    x1        OBJ       1
    x1        R1        1
    x1        R6        1
    x1        R10       1
    x1        R12       1
    x1        R15       1
    x1        R18       1
    x1        R20       1
    x1        R23       1
    x1        R24       1
    x1        R27       1
    x1        R29       1
    x2        OBJ       1
    x2        R2        1
    x2        R5        1
    x2        R9        1
    x2        R12       1
    x2        R15       1
    x2        R17       1
    x2        R20       1
    x2        R23       1
    x2        R24       1
    x2        R27       1
    x2        R30       1
    x3        OBJ       1
    x3        R3        1
    x3        R4        1
    x3        R8        1
    x3        R13       1
    x3        R14       1
    x3        R16       1
    x3        R21       1
    x3        R22       1
    x3        R25       1
    x3        R26       1
    x3        R31       1
    x4        OBJ       1
    x4        R3        1
    x4        R4        1
    x4        R9        1
    x4        R10       1
    x4        R15       1
    x4        R17       1
    x4        R18       1
    x4        R23       1
    x4        R24       1
    x4        R29       1
    x4        R30       1
    x5        OBJ       1
    x5        R2        1
    x5        R5        1
    x5        R8        1
    x5        R11       1
    x5        R14       1
    x5        R16       1
    x5        R19       1
    x5        R22       1
    x5        R25       1
    x5        R28       1
    x5        R31       1
    x6        OBJ       1
    x6        R1        1
    x6        R6        1
    x6        R8        1
    x6        R11       1
    x6        R13       1
    x6        R16       1
    x6        R19       1
    x6        R21       1
    x6        R26       1
    x6        R28       1
    x6        R31       1
    x7        OBJ       1
    x7        R0        1
    x7        R7        1
    x7        R9        1
    x7        R10       1
    x7        R12       1
    x7        R17       1
    x7        R18       1
    x7        R20       1
    x7        R27       1
    x7        R29       1
    x7        R30       1
    x8        OBJ       1
    x8        R3        1
    x8        R5        1
    x8        R6        1
    x8        R8        1
    x8        R15       1
    x8        R17       1
    x8        R18       1
    x8        R20       1
    x8        R27       1
    x8        R29       1
    x8        R30       1
    x9        OBJ       1
    x9        R2        1
    x9        R4        1
    x9        R7        1
    x9        R9        1
    x9        R14       1
    x9        R16       1
    x9        R19       1
    x9        R21       1
    x9        R26       1
    x9        R28       1
    x9        R31       1
    x10       OBJ       1
    x10       R1        1
    x10       R4        1
    x10       R7        1
    x10       R10       1
    x10       R13       1
    x10       R16       1
    x10       R19       1
    x10       R22       1
    x10       R25       1
    x10       R28       1
    x10       R31       1
    x11       OBJ       1
    x11       R0        1
    x11       R5        1
    x11       R6        1
    x11       R11       1
    x11       R12       1
    x11       R17       1
    x11       R18       1
    x11       R23       1
    x11       R24       1
    x11       R29       1
    x11       R30       1
    x12       OBJ       1
    x12       R1        1
    x12       R2        1
    x12       R7        1
    x12       R11       1
    x12       R12       1
    x12       R16       1
    x12       R21       1
    x12       R22       1
    x12       R25       1
    x12       R26       1
    x12       R31       1
    x13       OBJ       1
    x13       R0        1
    x13       R3        1
    x13       R6        1
    x13       R10       1
    x13       R13       1
    x13       R17       1
    x13       R20       1
    x13       R23       1
    x13       R24       1
    x13       R27       1
    x13       R30       1
    x14       OBJ       1
    x14       R0        1
    x14       R3        1
    x14       R5        1
    x14       R9        1
    x14       R14       1
    x14       R18       1
    x14       R20       1
    x14       R23       1
    x14       R24       1
    x14       R27       1
    x14       R29       1
    x15       OBJ       1
    x15       R1        1
    x15       R2        1
    x15       R4        1
    x15       R8        1
    x15       R15       1
    x15       R19       1
    x15       R21       1
    x15       R22       1
    x15       R25       1
    x15       R26       1
    x15       R28       1
    x16       OBJ       1
    x16       R3        1
    x16       R5        1
    x16       R6        1
    x16       R9        1
    x16       R10       1
    x16       R12       1
    x16       R16       1
    x16       R23       1
    x16       R27       1
    x16       R29       1
    x16       R30       1
    x17       OBJ       1
    x17       R2        1
    x17       R4        1
    x17       R7        1
    x17       R8        1
    x17       R11       1
    x17       R13       1
    x17       R17       1
    x17       R22       1
    x17       R26       1
    x17       R28       1
    x17       R31       1
    x18       OBJ       1
    x18       R1        1
    x18       R4        1
    x18       R7        1
    x18       R8        1
    x18       R11       1
    x18       R14       1
    x18       R18       1
    x18       R21       1
    x18       R25       1
    x18       R28       1
    x18       R31       1
    x19       OBJ       1
    x19       R0        1
    x19       R5        1
    x19       R6        1
    x19       R9        1
    x19       R10       1
    x19       R15       1
    x19       R19       1
    x19       R20       1
    x19       R24       1
    x19       R29       1
    x19       R30       1
    x20       OBJ       1
    x20       R1        1
    x20       R2        1
    x20       R7        1
    x20       R8        1
    x20       R13       1
    x20       R14       1
    x20       R19       1
    x20       R20       1
    x20       R25       1
    x20       R26       1
    x20       R31       1
    x21       OBJ       1
    x21       R0        1
    x21       R3        1
    x21       R6        1
    x21       R9        1
    x21       R12       1
    x21       R15       1
    x21       R18       1
    x21       R21       1
    x21       R24       1
    x21       R27       1
    x21       R30       1
    x22       OBJ       1
    x22       R0        1
    x22       R3        1
    x22       R5        1
    x22       R10       1
    x22       R12       1
    x22       R15       1
    x22       R17       1
    x22       R22       1
    x22       R24       1
    x22       R27       1
    x22       R29       1
    x23       OBJ       1
    x23       R1        1
    x23       R2        1
    x23       R4        1
    x23       R11       1
    x23       R13       1
    x23       R14       1
    x23       R16       1
    x23       R23       1
    x23       R25       1
    x23       R26       1
    x23       R28       1
    x24       OBJ       1
    x24       R1        1
    x24       R2        1
    x24       R4        1
    x24       R11       1
    x24       R13       1
    x24       R14       1
    x24       R19       1
    x24       R21       1
    x24       R22       1
    x24       R24       1
    x24       R31       1
    x25       OBJ       1
    x25       R0        1
    x25       R3        1
    x25       R5        1
    x25       R10       1
    x25       R12       1
    x25       R15       1
    x25       R18       1
    x25       R20       1
    x25       R23       1
    x25       R25       1
    x25       R30       1
    x26       OBJ       1
    x26       R0        1
    x26       R3        1
    x26       R6        1
    x26       R9        1
    x26       R12       1
    x26       R15       1
    x26       R17       1
    x26       R20       1
    x26       R23       1
    x26       R26       1
    x26       R29       1
    x27       OBJ       1
    x27       R1        1
    x27       R2        1
    x27       R7        1
    x27       R8        1
    x27       R13       1
    x27       R14       1
    x27       R16       1
    x27       R21       1
    x27       R22       1
    x27       R27       1
    x27       R28       1
    x28       OBJ       1
    x28       R0        1
    x28       R5        1
    x28       R6        1
    x28       R9        1
    x28       R10       1
    x28       R15       1
    x28       R17       1
    x28       R18       1
    x28       R23       1
    x28       R27       1
    x28       R28       1
    x29       OBJ       1
    x29       R1        1
    x29       R4        1
    x29       R7        1
    x29       R8        1
    x29       R11       1
    x29       R14       1
    x29       R16       1
    x29       R19       1
    x29       R22       1
    x29       R26       1
    x29       R29       1
    x30       OBJ       1
    x30       R2        1
    x30       R4        1
    x30       R7        1
    x30       R8        1
    x30       R11       1
    x30       R13       1
    x30       R16       1
    x30       R19       1
    x30       R21       1
    x30       R25       1
    x30       R30       1
    x31       OBJ       1
    x31       R3        1
    x31       R5        1
    x31       R6        1
    x31       R9        1
    x31       R10       1
    x31       R12       1
    x31       R17       1
    x31       R18       1
    x31       R20       1
    x31       R24       1
    x31       R31       1
RHS
    RHS1      R0        1
    RHS1      R1        1
    RHS1      R2        1
    RHS1      R3        1
    RHS1      R4        1
    RHS1      R5        1
    RHS1      R6        1
    RHS1      R7        1
    RHS1      R8        1
    RHS1      R9        1
    RHS1      R10       1
    RHS1      R11       1
    RHS1      R12       1
    RHS1      R13       1
    RHS1      R14       1
    RHS1      R15       1
    RHS1      R16       1
    RHS1      R17       1
    RHS1      R18       1
    RHS1      R19       1
    RHS1      R20       1
    RHS1      R21       1
    RHS1      R22       1
    RHS1      R23       1
    RHS1      R24       1
    RHS1      R25       1
    RHS1      R26       1
    RHS1      R27       1
    RHS1      R28       1
    RHS1      R29       1
    RHS1      R30       1
    RHS1      R31       1
BOUNDS
 UP BND1      x0        1
 UP BND1      x1        1
 UP BND1      x2        1
 UP BND1      x3        1
 UP BND1      x4        1
 UP BND1      x5        1
 UP BND1      x6        1
 UP BND1      x7        1
 UP BND1      x8        1
 UP BND1      x9        1
 UP BND1      x10       1
 UP BND1      x11       1
 UP BND1      x12       1
 UP BND1      x13       1
 UP BND1      x14       1
 UP BND1      x15       1
 UP BND1      x16       1
 UP BND1      x17       1
 UP BND1      x18       1
 UP BND1      x19       1
 UP BND1      x20       1
 UP BND1      x21       1
 UP BND1      x22       1
 UP BND1      x23       1
 UP BND1      x24       1
 UP BND1      x25       1
 UP BND1      x26       1
 UP BND1      x27       1
 UP BND1      x28       1
 UP BND1      x29       1
 UP BND1      x30       1
 UP BND1      x31       1
ENDATA
